PROBLEM NAME: eil51_n5
KNAPSACK DATA TYPE: uncorrelated, similar weights
DIMENSION: 5
NUMBER OF ITEMS: 4
CAPACITY OF KNAPSACK: 100093
MIN SPEED: 0.1
MAX SPEED: 1
RENTING RATIO: 0.37
EDGE_WEIGHT_TYPE: CEIL_2D
NODE_COORD_SECTION	(INDEX, X, Y):
1	31	32
2	36	16
3	62	63
4	5	6
5	30	15
ITEMS SECTION	(INDEX, PROFIT, WEIGHT, ASSIGNED NODE NUMBER):
1	485	100093	3
2	421	100091	2
3	326	100005	5
4	248	100015	4
